70 5506278
1 52 41 69 5 9 7 20 33 16 11 12 13 48 49 27 17 6 19 25 34 43 23 24 2 26 18 47 60 70 31 32 57 55 44 65 51 38 14 40 68 42 21 39 61 50 45 36 4 64 30 22 35 54 53 56 67 58 15 10 3 62 63 46 8 66 59 28 29 37 
